c CNF file corresponding to a (partial) station packing problem.
p cnf 1321 243
1 2 3 4 5 6 7 8 9 10 11 12 13 14 0
-1 -2 0
-1 -3 0
-1 -4 0
-1 -5 0
-1 -6 0
-1 -7 0
-1 -8 0
-1 -9 0
-1 -10 0
-1 -11 0
-1 -12 0
-1 -13 0
-1 -14 0
-2 -3 0
-2 -4 0
-2 -5 0
-2 -6 0
-2 -7 0
-2 -8 0
-2 -9 0
-2 -10 0
-2 -11 0
-2 -12 0
-2 -13 0
-2 -14 0
-3 -4 0
-3 -5 0
-3 -6 0
-3 -7 0
-3 -8 0
-3 -9 0
-3 -10 0
-3 -11 0
-3 -12 0
-3 -13 0
-3 -14 0
-4 -5 0
-4 -6 0
-4 -7 0
-4 -8 0
-4 -9 0
-4 -10 0
-4 -11 0
-4 -12 0
-4 -13 0
-4 -14 0
-5 -6 0
-5 -7 0
-5 -8 0
-5 -9 0
-5 -10 0
-5 -11 0
-5 -12 0
-5 -13 0
-5 -14 0
-6 -7 0
-6 -8 0
-6 -9 0
-6 -10 0
-6 -11 0
-6 -12 0
-6 -13 0
-6 -14 0
-7 -8 0
-7 -9 0
-7 -10 0
-7 -11 0
-7 -12 0
-7 -13 0
-7 -14 0
-8 -9 0
-8 -10 0
-8 -11 0
-8 -12 0
-8 -13 0
-8 -14 0
-9 -10 0
-9 -11 0
-9 -12 0
-9 -13 0
-9 -14 0
-10 -11 0
-10 -12 0
-10 -13 0
-10 -14 0
-11 -12 0
-11 -13 0
-11 -14 0
-12 -13 0
-12 -14 0
-13 -14 0
-12 -1319 0
-1309 -3 0
-4 -1311 0
-1312 -5 0
-14 -1321 0
-2 -1308 0
-8 -1315 0
-1318 -11 0
-1 -1307 0
-9 -1316 0
-1313 -6 0
-1320 -13 0
-7 -1314 0
-1317 -10 0
1305 1306 1307 1308 1309 1310 1311 1312 1313 1314 1315 1316 1317 1318 1319 1320 1321 0
-1305 -1306 0
-1305 -1307 0
-1305 -1308 0
-1305 -1309 0
-1305 -1310 0
-1305 -1311 0
-1305 -1312 0
-1305 -1313 0
-1305 -1314 0
-1305 -1315 0
-1305 -1316 0
-1305 -1317 0
-1305 -1318 0
-1305 -1319 0
-1305 -1320 0
-1305 -1321 0
-1306 -1307 0
-1306 -1308 0
-1306 -1309 0
-1306 -1310 0
-1306 -1311 0
-1306 -1312 0
-1306 -1313 0
-1306 -1314 0
-1306 -1315 0
-1306 -1316 0
-1306 -1317 0
-1306 -1318 0
-1306 -1319 0
-1306 -1320 0
-1306 -1321 0
-1307 -1308 0
-1307 -1309 0
-1307 -1310 0
-1307 -1311 0
-1307 -1312 0
-1307 -1313 0
-1307 -1314 0
-1307 -1315 0
-1307 -1316 0
-1307 -1317 0
-1307 -1318 0
-1307 -1319 0
-1307 -1320 0
-1307 -1321 0
-1308 -1309 0
-1308 -1310 0
-1308 -1311 0
-1308 -1312 0
-1308 -1313 0
-1308 -1314 0
-1308 -1315 0
-1308 -1316 0
-1308 -1317 0
-1308 -1318 0
-1308 -1319 0
-1308 -1320 0
-1308 -1321 0
-1309 -1310 0
-1309 -1311 0
-1309 -1312 0
-1309 -1313 0
-1309 -1314 0
-1309 -1315 0
-1309 -1316 0
-1309 -1317 0
-1309 -1318 0
-1309 -1319 0
-1309 -1320 0
-1309 -1321 0
-1310 -1311 0
-1310 -1312 0
-1310 -1313 0
-1310 -1314 0
-1310 -1315 0
-1310 -1316 0
-1310 -1317 0
-1310 -1318 0
-1310 -1319 0
-1310 -1320 0
-1310 -1321 0
-1311 -1312 0
-1311 -1313 0
-1311 -1314 0
-1311 -1315 0
-1311 -1316 0
-1311 -1317 0
-1311 -1318 0
-1311 -1319 0
-1311 -1320 0
-1311 -1321 0
-1312 -1313 0
-1312 -1314 0
-1312 -1315 0
-1312 -1316 0
-1312 -1317 0
-1312 -1318 0
-1312 -1319 0
-1312 -1320 0
-1312 -1321 0
-1313 -1314 0
-1313 -1315 0
-1313 -1316 0
-1313 -1317 0
-1313 -1318 0
-1313 -1319 0
-1313 -1320 0
-1313 -1321 0
-1314 -1315 0
-1314 -1316 0
-1314 -1317 0
-1314 -1318 0
-1314 -1319 0
-1314 -1320 0
-1314 -1321 0
-1315 -1316 0
-1315 -1317 0
-1315 -1318 0
-1315 -1319 0
-1315 -1320 0
-1315 -1321 0
-1316 -1317 0
-1316 -1318 0
-1316 -1319 0
-1316 -1320 0
-1316 -1321 0
-1317 -1318 0
-1317 -1319 0
-1317 -1320 0
-1317 -1321 0
-1318 -1319 0
-1318 -1320 0
-1318 -1321 0
-1319 -1320 0
-1319 -1321 0
-1320 -1321 0
